c clasp version 2.1.1
c Reading from pb_400_10.cnf
c Solving...
s SATISFIABLE

c Models        : 1+    
c Time          : 29.955s (Solving: 27.16s 1st Model: 27.16s Unsat: 0.00s)
c CPU Time      : 29.900s
c Choices       : 483815
c Conflicts     : 35578
c Restarts      : 93     (Average: 382.56 Last: 615)

c Variables     : 643735 (Eliminated: 204682 Frozen:    0)
c Constraints   : 835309 (Binary: 63.1% Ternary: 36.1% Other:  0.8%)
c Lemmas        : 35578  (Binary:  0.6% Ternary:  0.9% Other: 98.5%)
c   Conflict    : 35578  (Average Length: 100.9) 
c   Loop        : 0      (Average Length: 0.0) 
c   Other       : 0      (Average Length: 0.0)
c   Deleted     : 13241 
